p cnf 144 491
-5 3 0
-5 4 0
-3 -4 5 0
7 5 0
7 -6 0
-5 6 -7 0
2 -7 -8 0
-2 7 -8 0
2 7 8 0
-2 -7 8 0
-1 -9 -10 0
1 9 -10 0
-1 9 10 0
1 -9 10 0
-9 10 -11 0
9 -10 -11 0
-9 -10 11 0
9 10 11 0
12 -8 0
12 11 0
8 -11 -12 0
-13 1 0
-13 -12 0
-1 12 13 0
-13 8 -14 0
13 -8 -14 0
-13 -8 14 0
13 8 14 0
9 -6 -15 0
-9 6 -15 0
9 6 15 0
-9 -6 15 0
-16 -2 0
-16 15 0
2 -15 16 0
19 17 0
19 -18 0
-17 18 -19 0
-16 19 -20 0
16 -19 -20 0
-16 -19 20 0
16 19 20 0
-22 -21 0
-22 1 0
21 -1 22 0
20 22 -23 0
-20 -22 -23 0
20 -22 23 0
-20 22 23 0
24 -14 0
24 -23 0
14 23 -24 0
10 25 -26 0
-10 -25 -26 0
10 -25 26 0
-10 25 26 0
-27 19 0
-27 26 0
-19 -26 27 0
28 11 0
28 26 0
-11 -26 -28 0
-26 28 -29 0
26 -28 -29 0
-26 -28 29 0
26 28 29 0
-30 28 0
-30 22 0
-28 -22 30 0
31 21 0
31 -30 0
-21 30 -31 0
-32 -31 0
-32 -7 0
31 7 32 0
-29 32 -33 0
29 -32 -33 0
-29 -32 33 0
29 32 33 0
27 -33 -34 0
-27 33 -34 0
27 33 34 0
-27 -33 34 0
-36 -25 0
-36 -21 0
25 21 36 0
37 36 0
37 -10 0
-36 10 -37 0
35 37 -38 0
-35 -37 -38 0
35 -37 38 0
-35 37 38 0
-40 -35 0
-40 -7 0
35 7 40 0
-41 -10 0
-41 -40 0
10 40 41 0
39 -41 -42 0
-39 41 -42 0
39 41 42 0
-39 -41 42 0
-43 4 0
-43 -42 0
-4 42 43 0
-44 38 0
-44 -43 0
-38 43 44 0
-25 -21 -45 0
25 21 -45 0
-25 21 45 0
25 -21 45 0
46 45 0
46 -12 0
-45 12 -46 0
48 -1 0
48 -47 0
1 47 -48 0
-49 46 0
-49 -48 0
-46 48 49 0
-25 -5 -50 0
25 5 -50 0
-25 5 50 0
25 -5 50 0
-5 -10 -51 0
5 10 -51 0
-5 10 51 0
5 -10 51 0
-52 50 0
-52 -51 0
-50 51 52 0
-53 38 0
-53 -52 0
-38 52 53 0
54 -17 -55 0
-54 17 -55 0
54 17 55 0
-54 -17 55 0
56 -55 0
56 -6 0
55 6 -56 0
57 -56 0
57 2 0
56 -2 -57 0
-53 57 -58 0
53 -57 -58 0
-53 -57 58 0
53 57 58 0
59 4 0
59 -11 0
-4 11 -59 0
-3 59 -60 0
3 -59 -60 0
-3 -59 60 0
3 59 60 0
-58 -60 -61 0
58 60 -61 0
-58 60 61 0
58 -60 61 0
62 -49 0
62 -61 0
49 61 -62 0
63 -44 0
63 62 0
44 -62 -63 0
64 -11 0
64 -3 0
11 3 -64 0
-3 -59 -65 0
3 59 -65 0
-3 59 65 0
3 -59 65 0
66 64 0
66 -65 0
-64 65 -66 0
-67 -63 0
-67 66 0
63 -66 67 0
38 -45 -68 0
-38 45 -68 0
38 45 68 0
-38 -45 68 0
-69 -39 0
-69 -38 0
39 38 69 0
30 54 -70 0
-30 -54 -70 0
30 -54 70 0
-30 54 70 0
69 -70 -71 0
-69 70 -71 0
69 70 71 0
-69 -70 71 0
-72 -3 0
-72 2 0
3 -2 72 0
73 1 0
73 -39 0
-1 39 -73 0
74 -30 0
74 -73 0
30 73 -74 0
-72 -74 -75 0
72 74 -75 0
-72 74 75 0
72 -74 75 0
76 -16 0
76 28 0
16 -28 -76 0
-77 -75 0
-77 76 0
75 -76 77 0
78 -71 0
78 77 0
71 -77 -78 0
79 68 0
79 -78 0
-68 78 -79 0
-59 6 -80 0
59 -6 -80 0
-59 -6 80 0
59 6 80 0
81 80 0
81 -28 0
-80 28 -81 0
82 -22 0
82 35 0
22 -35 -82 0
82 16 -83 0
-82 -16 -83 0
82 -16 83 0
-82 16 83 0
84 -81 0
84 -83 0
81 83 -84 0
85 48 0
85 55 0
-48 -55 -85 0
86 -84 0
86 85 0
84 -85 -86 0
87 -79 0
87 -86 0
79 86 -87 0
-67 -87 -88 0
67 87 -88 0
-67 87 88 0
67 -87 88 0
-89 -34 0
-89 88 0
34 -88 89 0
-90 35 0
-90 -45 0
-35 45 90 0
-92 91 0
-92 -6 0
-91 6 92 0
-93 9 0
-93 -36 0
-9 36 93 0
93 -25 -94 0
-93 25 -94 0
93 25 94 0
-93 -25 94 0
9 -94 -95 0
-9 94 -95 0
9 94 95 0
-9 -94 95 0
-96 -92 0
-96 95 0
92 -95 96 0
97 -90 0
97 -96 0
90 96 -97 0
-98 18 0
-98 -22 0
-18 22 98 0
-99 -28 0
-99 -31 0
28 31 99 0
100 98 0
100 -99 0
-98 99 -100 0
101 -11 0
101 -48 0
11 48 -101 0
-102 -101 0
-102 -36 0
101 36 102 0
103 99 0
103 102 0
-99 -102 -103 0
100 103 -104 0
-100 -103 -104 0
100 -103 104 0
-100 103 104 0
97 -104 -105 0
-97 104 -105 0
97 104 105 0
-97 -104 105 0
-73 -16 -106 0
73 16 -106 0
-73 16 106 0
73 -16 106 0
-107 -99 0
-107 -106 0
99 106 107 0
108 -105 0
108 -107 0
105 107 -108 0
99 41 -109 0
-99 -41 -109 0
99 -41 109 0
-99 41 109 0
110 18 0
110 45 0
-18 -45 -110 0
-111 -109 0
-111 -110 0
109 110 111 0
112 17 0
112 28 0
-17 -28 -112 0
113 111 0
113 112 0
-111 -112 -113 0
-114 80 0
-114 -5 0
-80 5 114 0
-115 -113 0
-115 -114 0
113 114 115 0
-17 16 -116 0
17 -16 -116 0
-17 -16 116 0
17 16 116 0
117 41 0
117 -28 0
-41 28 -117 0
118 36 0
118 -117 0
-36 117 -118 0
-119 -1 0
-119 118 0
1 -118 119 0
-120 -28 0
-120 51 0
28 -51 120 0
120 35 -121 0
-120 -35 -121 0
120 -35 121 0
-120 35 121 0
122 -25 0
122 4 0
25 -4 -122 0
-123 -121 0
-123 -122 0
121 122 123 0
-124 45 0
-124 -45 0
-120 -124 -125 0
120 124 -125 0
-120 124 125 0
120 -124 125 0
-126 -1 0
-126 26 0
1 -26 126 0
126 52 -127 0
-126 -52 -127 0
126 -52 127 0
-126 52 127 0
-129 13 0
-129 128 0
-13 -128 129 0
130 1 0
130 -40 0
-1 40 -130 0
131 -130 0
131 -13 0
130 13 -131 0
-132 -55 0
-132 131 0
55 -131 132 0
-129 132 -133 0
129 -132 -133 0
-129 -132 133 0
129 132 133 0
134 127 0
134 -133 0
-127 133 -134 0
135 -125 0
135 -134 0
125 134 -135 0
53 -11 -136 0
-53 11 -136 0
53 11 136 0
-53 -11 136 0
137 135 0
137 136 0
-135 -136 -137 0
123 -137 -138 0
-123 137 -138 0
123 137 138 0
-123 -137 138 0
-139 119 0
-139 -138 0
-119 138 139 0
140 -116 0
140 139 0
116 -139 -140 0
115 -140 -141 0
-115 140 -141 0
115 140 141 0
-115 -140 141 0
108 -141 -142 0
-108 141 -142 0
108 141 142 0
-108 -141 142 0
-143 89 0
-143 -142 0
-89 142 143 0
144 24 0
144 143 0
-24 -143 -144 0
92 86 129 0
-96 -69 5 50 0
119 20 58 30 0
-90 51 64 -52 118 -17 0
-36 119 12 -104 0
46 -32 0
-127 18 -128 0
80 21 -83 -94 27 -61 0
-11 35 -138 0
59 51 -132 -82 -24 -79 0
18 -117 -95 60 0
-96 -84 122 -108 0
-107 -120 0
-83 47 -79 0
115 -75 15 0
-57 38 -23 0
-74 19 111 0
-50 -141 0
-38 5 88 -75 0
111 -73 0
-128 27 95 -50 7 83 0
-19 86 82 0
80 33 77 -117 0
123 122 -6 116 78 0
124 77 -45 88 133 78 0
97 -65 134 0
-120 -35 0
84 62 -118 -4 0
10 -24 -89 -104 0
-51 -8 0
140 11 -76 -31 -85 0
143 -82 38 136 0
18 8 75 -47 0
-25 -109 -140 0
92 135 121 -140 0
28 -49 0
-47 -88 122 -98 0
-71 18 -86 -119 51 0
-25 -7 -55 50 142 -96 0
-39 -137 61 -11 0
-36 -93 38 -72 0
103 -61 68 -58 -25 18 0
45 57 0
72 -78 129 75 0
9 -137 -134 97 0
-74 61 -90 0
10 103 -11 115 0
81 58 0
123 -92 55 110 -80 0
-13 77 -69 -59 19 0
-80 -99 0
118 81 -79 0
-2 63 108 12 -98 -13 0
83 -68 111 134 45 -91 0
129 65 126 0
-88 21 0
37 -102 -71 -135 0
143 109 135 88 -68 105 0
138 127 143 -129 0
-72 52 0
-116 -143 105 -91 -25 14 0
32 -121 -22 -63 0
-9 27 117 0
-104 105 7 12 0
144 0
